0 42 
1 44 
2 44 
3 43 
4 42 
5 40 
6 40 
7 38 
8 37 
9 36 
10 37 
11 36 
12 33 
13 33 
14 31 
15 30 
16 26 
17 25 
18 23 
19 22 
20 24 
21 23 
22 20 
23 18 
24 17 
25 16 
26 15 
27 14 
28 11 
29 9 
30 11 
31 13 
32 10 
33 8 
34 10 
35 11 
36 9 
37 8 
38 5 
39 4 
40 6 
41 7 
42 4 
43 3 
44 3 
45 2 
46 2 
47 1 
48 0 
49 0 

